Maximize
F 

Subject to
F - 4y4 - 6y22 - 4y32 - 4y8 - 4y10 - 2y23 - 6y11 - 4y2 - 6y35 - 6y7 = 0

x24x4x1 + x24x22x1 + x24x8x1 + x24x10x1 + x24x23x1 + x24x11x1 + x24x2x1 + x24x7x1 
<= 1

x24x4x2 + x24x22x2 + x24x32x2 + x24x10x2 + x24x23x2 + x24x11x2 + x24x2x2 + x24x35x2 
<= 1

x24x4x1 
- x4x0x1
- x4x10x1 - x4x23x1 - x4x11x1 - x4x2x1 - x4x7x1 
= 0
x24x4x2 
- x4x0x2
- x4x10x2 - x4x23x2 - x4x11x2 - x4x2x2 - x4x35x2 
= 0

x24x22x1 
- x22x0x1
- x22x23x1 - x22x11x1 - x22x2x1 - x22x7x1 
= 0
x24x22x2 
- x22x0x2
- x22x23x2 - x22x11x2 - x22x2x2 - x22x35x2 
= 0


x24x32x2 
- x32x0x2
- x32x23x2 - x32x11x2 - x32x2x2 - x32x35x2 
= 0

x24x8x1 
- x8x0x1
- x8x23x1 - x8x11x1 - x8x2x1 - x8x7x1 
= 0


x24x10x1 + x4x10x1 
- x10x0x1
- x10x23x1 - x10x11x1 - x10x2x1 - x10x7x1 
= 0
x24x10x2 + x4x10x2 
- x10x0x2
- x10x23x2 - x10x11x2 - x10x2x2 - x10x35x2 
= 0

x24x23x1 + x4x23x1 + x22x23x1 + x8x23x1 + x10x23x1 
- x23x0x1
- x23x11x1 - x23x2x1 - x23x7x1 
= 0
x24x23x2 + x4x23x2 + x22x23x2 + x32x23x2 + x10x23x2 
- x23x0x2
- x23x11x2 - x23x2x2 - x23x35x2 
= 0

x24x11x1 + x4x11x1 + x22x11x1 + x8x11x1 + x10x11x1 + x23x11x1 
- x11x0x1

= 0
x24x11x2 + x4x11x2 + x22x11x2 + x32x11x2 + x10x11x2 + x23x11x2 
- x11x0x2

= 0

x24x2x1 + x4x2x1 + x22x2x1 + x8x2x1 + x10x2x1 + x23x2x1 
- x2x0x1

= 0
x24x2x2 + x4x2x2 + x22x2x2 + x32x2x2 + x10x2x2 + x23x2x2 
- x2x0x2

= 0


x24x35x2 + x4x35x2 + x22x35x2 + x32x35x2 + x10x35x2 + x23x35x2 
- x35x0x2

= 0

x24x7x1 + x4x7x1 + x22x7x1 + x8x7x1 + x10x7x1 + x23x7x1 
- x7x0x1

= 0


1y4 - x24x4x1 = 0
1y4 - x24x4x2 = 0
1y22 - x24x22x1 = 0
1y22 - x24x22x2 = 0
1y32 - x24x32x2 = 0
1y8 - x24x8x1 = 0
1y10 - x24x10x1 - x4x10x1 = 0
1y10 - x24x10x2 - x4x10x2 = 0
1y23 - x24x23x1 - x4x23x1 - x22x23x1 - x8x23x1 - x10x23x1 = 0
1y23 - x24x23x2 - x4x23x2 - x22x23x2 - x32x23x2 - x10x23x2 = 0
1y11 - x24x11x1 - x4x11x1 - x22x11x1 - x8x11x1 - x10x11x1 - x23x11x1 = 0
1y11 - x24x11x2 - x4x11x2 - x22x11x2 - x32x11x2 - x10x11x2 - x23x11x2 = 0
1y2 - x24x2x1 - x4x2x1 - x22x2x1 - x8x2x1 - x10x2x1 - x23x2x1 = 0
1y2 - x24x2x2 - x4x2x2 - x22x2x2 - x32x2x2 - x10x2x2 - x23x2x2 = 0
1y35 - x24x35x2 - x4x35x2 - x22x35x2 - x32x35x2 - x10x35x2 - x23x35x2 = 0
1y7 - x24x7x1 - x4x7x1 - x22x7x1 - x8x7x1 - x10x7x1 - x23x7x1 = 0

s24 - s4 + 6.213643z24z4z1 <= 4.77
s24 - s4 + 6.213643z24z4z2 <= 4.77
s24 - s22 + 6.218760z24z22z1 <= 4.77
s24 - s22 + 6.218760z24z22z2 <= 4.77
s24 - s32 + 6.342176z24z32z2 <= 4.77
s24 - s8 + 6.330070z24z8z1 <= 4.77
s24 - s10 + 6.278823z24z10z1 <= 4.77
s24 - s10 + 6.278823z24z10z2 <= 4.77
s24 - s23 + 6.382145z24z23z1 <= 4.77
s24 - s23 + 6.382145z24z23z2 <= 4.77
s24 - s11 + 6.722278z24z11z1 <= 4.77
s24 - s11 + 6.722278z24z11z2 <= 4.77
s24 - s2 + 6.473067z24z2z1 <= 4.77
s24 - s2 + 6.473067z24z2z2 <= 4.77
s24 - s35 + 6.747378z24z35z2 <= 4.77
s24 - s7 + 6.740883z24z7z1 <= 4.77
s4 - s10 + 7.882927z4z10z1 <= 6.76
s4 - s10 + 7.882927z4z10z2 <= 6.76
s4 - s23 + 7.928787z4z23z1 <= 6.76
s4 - s23 + 7.928787z4z23z2 <= 6.76
s4 - s11 + 8.439870z4z11z1 <= 6.76
s4 - s11 + 8.439870z4z11z2 <= 6.76
s4 - s2 + 8.363177z4z2z1 <= 6.76
s4 - s2 + 8.363177z4z2z2 <= 6.76
s4 - s35 + 8.520731z4z35z2 <= 6.76
s4 - s7 + 8.526696z4z7z1 <= 6.76
s22 - s23 + 7.779967z22z23z1 <= 6.61
s22 - s23 + 7.779967z22z23z2 <= 6.61
s22 - s11 + 8.333357z22z11z1 <= 6.61
s22 - s11 + 8.333357z22z11z2 <= 6.61
s22 - s2 + 8.261597z22z2z1 <= 6.61
s22 - s2 + 8.261597z22z2z2 <= 6.61
s22 - s35 + 8.416915z22z35z2 <= 6.61
s22 - s7 + 8.423361z22z7z1 <= 6.61
s32 - s23 + 8.092069z32z23z2 <= 7.04
s32 - s11 + 8.720000z32z11z2 <= 7.04
s32 - s2 + 8.712309z32z2z2 <= 7.04
s32 - s35 + 8.819772z32z35z2 <= 7.04
s8 - s23 + 8.133333z8z23z1 <= 7.08
s8 - s11 + 8.720312z8z11z1 <= 7.08
s8 - s2 + 8.707694z8z2z1 <= 7.08
s8 - s7 + 8.827648z8z7z1 <= 7.08
s10 - s23 + 8.328259z10z23z1 <= 7.16
s10 - s23 + 8.328259z10z23z2 <= 7.16
s10 - s11 + 8.716976z10z11z1 <= 7.16
s10 - s11 + 8.716976z10z11z2 <= 7.16
s10 - s2 + 8.663940z10z2z1 <= 7.16
s10 - s2 + 8.663940z10z2z2 <= 7.16
s10 - s35 + 8.800035z10z35z2 <= 7.16
s10 - s7 + 8.806975z10z7z1 <= 7.16
s23 - s11 + 8.980867z23z11z1 <= 7.34
s23 - s11 + 8.980867z23z11z2 <= 7.34
s23 - s2 + 8.996489z23z2z1 <= 7.34
s23 - s2 + 8.996489z23z2z2 <= 7.34
s23 - s35 + 9.085356z23z35z2 <= 7.34
s23 - s7 + 9.097099z23z7z1 <= 7.34

x24x4x1 - 1z24z4z1 <= 0
x24x4x2 - 1z24z4z2 <= 0
x24x22x1 - 1z24z22z1 <= 0
x24x22x2 - 1z24z22z2 <= 0
x24x32x2 - 1z24z32z2 <= 0
x24x8x1 - 1z24z8z1 <= 0
x24x10x1 - 1z24z10z1 <= 0
x24x10x2 - 1z24z10z2 <= 0
x24x23x1 - 1z24z23z1 <= 0
x24x23x2 - 1z24z23z2 <= 0
x24x11x1 - 1z24z11z1 <= 0
x24x11x2 - 1z24z11z2 <= 0
x24x2x1 - 1z24z2z1 <= 0
x24x2x2 - 1z24z2z2 <= 0
x24x35x2 - 1z24z35z2 <= 0
x24x7x1 - 1z24z7z1 <= 0
x4x10x1 - 1z4z10z1 <= 0
x4x10x2 - 1z4z10z2 <= 0
x4x23x1 - 1z4z23z1 <= 0
x4x23x2 - 1z4z23z2 <= 0
x4x11x1 - 1z4z11z1 <= 0
x4x11x2 - 1z4z11z2 <= 0
x4x2x1 - 1z4z2z1 <= 0
x4x2x2 - 1z4z2z2 <= 0
x4x35x2 - 1z4z35z2 <= 0
x4x7x1 - 1z4z7z1 <= 0
x4x0x1 <= 1
x4x0x2 <= 1
x22x23x1 - 1z22z23z1 <= 0
x22x23x2 - 1z22z23z2 <= 0
x22x11x1 - 1z22z11z1 <= 0
x22x11x2 - 1z22z11z2 <= 0
x22x2x1 - 1z22z2z1 <= 0
x22x2x2 - 1z22z2z2 <= 0
x22x35x2 - 1z22z35z2 <= 0
x22x7x1 - 1z22z7z1 <= 0
x22x0x1 <= 1
x22x0x2 <= 1
x32x23x2 - 1z32z23z2 <= 0
x32x11x2 - 1z32z11z2 <= 0
x32x2x2 - 1z32z2z2 <= 0
x32x35x2 - 1z32z35z2 <= 0
x32x0x2 <= 1
x8x23x1 - 1z8z23z1 <= 0
x8x11x1 - 1z8z11z1 <= 0
x8x2x1 - 1z8z2z1 <= 0
x8x7x1 - 1z8z7z1 <= 0
x8x0x1 <= 1
x10x23x1 - 1z10z23z1 <= 0
x10x23x2 - 1z10z23z2 <= 0
x10x11x1 - 1z10z11z1 <= 0
x10x11x2 - 1z10z11z2 <= 0
x10x2x1 - 1z10z2z1 <= 0
x10x2x2 - 1z10z2z2 <= 0
x10x35x2 - 1z10z35z2 <= 0
x10x7x1 - 1z10z7z1 <= 0
x10x0x1 <= 1
x10x0x2 <= 1
x23x11x1 - 1z23z11z1 <= 0
x23x11x2 - 1z23z11z2 <= 0
x23x2x1 - 1z23z2z1 <= 0
x23x2x2 - 1z23z2z2 <= 0
x23x35x2 - 1z23z35z2 <= 0
x23x7x1 - 1z23z7z1 <= 0
x23x0x1 <= 1
x23x0x2 <= 1
x11x0x1 <= 1
x11x0x2 <= 1
x2x0x1 <= 1
x2x0x2 <= 1
x35x0x2 <= 1
x7x0x1 <= 1

Bounds
s24 = 4.768921
6.000000 <= s4 <= 6.760000
6.000000 <= s22 <= 6.610000
6.040000 <= s32 <= 7.040000
6.080000 <= s8 <= 7.080000
6.160000 <= s10 <= 7.160000
6.340000 <= s23 <= 7.340000
8.190000 <= s11 <= 9.190000
8.230000 <= s2 <= 9.230000
8.250000 <= s35 <= 9.250000
8.260000 <= s7 <= 9.260000

General
x24x4x1 x24x4x2 x24x22x1 x24x22x2 x24x32x2 x24x8x1 x24x10x1 x24x10x2 x24x23x1 x24x23x2 x24x11x1 x24x11x2 x24x2x1 x24x2x2 x24x35x2 x24x7x1 
x4x10x1 x4x10x2 x4x23x1 x4x23x2 x4x11x1 x4x11x2 x4x2x1 x4x2x2 x4x35x2 x4x7x1 x4x0x1 x4x0x2 
x22x23x1 x22x23x2 x22x11x1 x22x11x2 x22x2x1 x22x2x2 x22x35x2 x22x7x1 x22x0x1 x22x0x2 
x32x23x2 x32x11x2 x32x2x2 x32x35x2 x32x0x2 
x8x23x1 x8x11x1 x8x2x1 x8x7x1 x8x0x1 
x10x23x1 x10x23x2 x10x11x1 x10x11x2 x10x2x1 x10x2x2 x10x35x2 x10x7x1 x10x0x1 x10x0x2 
x23x11x1 x23x11x2 x23x2x1 x23x2x2 x23x35x2 x23x7x1 x23x0x1 x23x0x2 
x11x0x1 x11x0x2 
x2x0x1 x2x0x2 
x35x0x2 
x7x0x1 

Binaries
y4 y22 y32 y8 y10 y23 y11 y2 y35 y7 
z24z4z1 z24z4z2 z24z22z1 z24z22z2 z24z32z2 z24z8z1 z24z10z1 z24z10z2 z24z23z1 z24z23z2 z24z11z1 z24z11z2 z24z2z1 z24z2z2 z24z35z2 z24z7z1 
z4z10z1 z4z10z2 z4z23z1 z4z23z2 z4z11z1 z4z11z2 z4z2z1 z4z2z2 z4z35z2 z4z7z1 
z22z23z1 z22z23z2 z22z11z1 z22z11z2 z22z2z1 z22z2z2 z22z35z2 z22z7z1 
z32z23z2 z32z11z2 z32z2z2 z32z35z2 
z8z23z1 z8z11z1 z8z2z1 z8z7z1 
z10z23z1 z10z23z2 z10z11z1 z10z11z2 z10z2z1 z10z2z2 z10z35z2 z10z7z1 
z23z11z1 z23z11z2 z23z2z1 z23z2z2 z23z35z2 z23z7z1 





End